SDVRP instances/custom_instances/p01_20_splitx10_0.vrp
NAME:p01_20_splitx10_
BEST_KNOWN: 0
COMMENT: 0
DIMENSION: 241
CAPACITY: 1600
EDGE_WEIGHT_FORMAT: FUNCTION
EDGE_WEIGHT_TYPE: EXACT_2D
NODE_COORD_SECTION
1 0.00000 0.00000
2 43 -8
3 43 -8
4 43 -8
5 43 -8
6 43 -8
7 11 4
8 11 4
9 11 4
10 35 48
11 35 48
12 35 48
13 35 48
14 -36 -20
15 -36 -20
16 -36 -20
17 -36 -20
18 -32 8
19 -32 8
20 -32 8
21 -32 8
22 -32 8
23 -32 8
24 -32 8
25 -32 8
26 -46 41
27 -46 41
28 -46 41
29 -46 41
30 -46 41
31 42 -14
32 42 -14
33 -50 -6
34 -50 -6
35 -50 -6
36 -50 -6
37 -50 -6
38 -50 -6
39 -50 -6
40 -19 6
41 -19 6
42 -19 6
43 -19 6
44 3 -45
45 3 -45
46 3 -45
47 3 -45
48 3 -45
49 3 -45
50 -2 -21
51 -2 -21
52 -11 -35
53 -11 -35
54 -11 -35
55 -50 -32
56 -50 -32
57 -50 -32
58 -50 -32
59 -50 -32
60 -50 -32
61 34 -14
62 34 -14
63 34 -14
64 34 -14
65 6 22
66 6 22
67 6 22
68 6 22
69 6 22
70 6 22
71 6 22
72 7 -21
73 7 -21
74 7 -21
75 7 -21
76 7 -21
77 49 0
78 49 0
79 49 0
80 38 -4
81 38 -4
82 38 -4
83 38 -4
84 38 -4
85 38 -4
86 30 21
87 30 21
88 30 21
89 -7 -8
90 -7 -8
91 -7 -8
92 -7 -8
93 0 1
94 0 1
95 0 1
96 0 1
97 0 1
98 0 1
99 -20 38
100 -20 38
101 -20 38
102 -20 38
103 -20 38
104 -20 38
105 -20 38
106 -19 -20
107 -19 -20
108 -19 -20
109 -19 -20
110 -19 -20
111 50 22
112 50 22
113 17 40
114 17 40
115 -4 42
116 -4 42
117 -4 42
118 -4 42
119 -4 42
120 -4 42
121 -4 42
122 -10 10
123 -10 10
124 -10 10
125 -10 10
126 -10 10
127 -12 7
128 -12 7
129 -12 7
130 2 37
131 2 37
132 2 37
133 2 37
134 -38 -6
135 -38 -6
136 -38 -6
137 -38 -6
138 -38 -6
139 -38 -6
140 -38 -6
141 9 50
142 9 50
143 9 50
144 9 50
145 -6 -22
146 -6 -22
147 -6 -22
148 -6 -22
149 -6 -22
150 16 15
151 16 15
152 16 15
153 16 15
154 16 15
155 16 15
156 16 15
157 -6 -39
158 -6 -39
159 -6 -39
160 24 -7
161 24 -7
162 24 -7
163 24 -7
164 24 -7
165 36 13
166 36 13
167 36 13
168 -4 40
169 -4 40
170 -4 40
171 -4 40
172 -3 -13
173 -3 -13
174 -3 -13
175 -3 -13
176 23 3
177 23 3
178 23 3
179 23 3
180 23 3
181 23 3
182 23 3
183 14 18
184 14 18
185 14 18
186 14 18
187 14 18
188 14 18
189 14 18
190 14 18
191 4 -30
192 4 -30
193 4 -30
194 4 -30
195 4 -30
196 4 -30
197 4 -30
198 4 -30
199 -23 -13
200 -23 -13
201 -23 -13
202 -23 -13
203 -23 -13
204 -23 -13
205 -23 -13
206 -23 -13
207 5 11
208 5 11
209 5 11
210 46 48
211 46 48
212 46 48
213 46 48
214 46 48
215 46 48
216 46 48
217 -36 20
218 -36 20
219 -36 20
220 -36 20
221 26 -42
222 26 -42
223 26 -42
224 -11 -37
225 -11 -37
226 -11 -37
227 7 -7
228 7 -7
229 7 -7
230 7 -7
231 7 -7
232 20 44
233 20 44
234 20 44
235 20 44
236 20 44
237 20 44
238 20 44
239 20 44
240 -3 8
241 -3 8
DEMAND_SECTION
1 0
2 320
3 80
4 16
5 16
6 8
7 320
8 16
9 4
10 320
11 80
12 16
13 4
14 320
15 80
16 16
17 4
18 320
19 320
20 80
21 16
22 16
23 16
24 16
25 6
26 320
27 16
28 16
29 16
30 2
31 320
32 80
33 320
34 160
35 80
36 16
37 16
38 16
39 12
40 320
41 16
42 16
43 8
44 320
45 320
46 16
47 16
48 16
49 2
50 160
51 80
52 320
53 320
54 10
55 160
56 16
57 16
58 16
59 16
60 6
61 320
62 320
63 80
64 10
65 160
66 80
67 16
68 16
69 16
70 16
71 6
72 320
73 160
74 16
75 16
76 8
77 320
78 16
79 14
80 160
81 80
82 16
83 16
84 16
85 12
86 160
87 80
88 10
89 320
90 320
91 16
92 4
93 320
94 80
95 16
96 16
97 16
98 12
99 320
100 160
101 16
102 16
103 16
104 16
105 6
106 320
107 16
108 16
109 16
110 12
111 320
112 10
113 320
114 10
115 320
116 160
117 80
118 16
119 16
120 16
121 2
122 320
123 160
124 16
125 16
126 8
127 320
128 320
129 10
130 320
131 16
132 16
133 8
134 320
135 80
136 16
137 16
138 16
139 16
140 6
141 320
142 16
143 16
144 8
145 320
146 320
147 80
148 16
149 14
150 320
151 320
152 80
153 16
154 16
155 16
156 2
157 320
158 16
159 14
160 320
161 320
162 80
163 16
164 4
165 160
166 80
167 10
168 320
169 320
170 16
171 4
172 320
173 80
174 16
175 4
176 160
177 80
178 16
179 16
180 16
181 16
182 6
183 320
184 320
185 80
186 16
187 16
188 16
189 16
190 6
191 320
192 160
193 80
194 16
195 16
196 16
197 16
198 6
199 320
200 160
201 80
202 16
203 16
204 16
205 16
206 6
207 320
208 160
209 80
210 320
211 320
212 80
213 16
214 16
215 16
216 2
217 160
218 16
219 16
220 8
221 320
222 80
223 10
224 320
225 320
226 80
227 320
228 320
229 16
230 16
231 8
232 320
233 160
234 80
235 16
236 16
237 16
238 16
239 6
240 320
241 80
DEPOT_SECTION
1
-1
EOF