SDVRP instances/custom_instances/p01_20_splitx10_0.sol
240 -5 2 4 1 3 31 30 62 61 60 63 -6 179 175 178 177 180 181 176 160 163 159 226 -7 8 86 87 85 166 165 164 110 111 78 77 76 84 82 81 83 79 80 162 161 -39 42 40 41 22 21 17 23 18 19 24 20 133 134 137 139 -49 225 224 223 52 51 53 -50 157 158 156 44 46 47 43 48 45 222 221 220 -69 64 65 112 113 235 232 238 234 237 236 140 143 142 141 129 -96 92 94 97 95 93 88 91 90 89 171 172 173 174 -128 127 126 121 125 123 124 122 239 240 -135 136 138 32 37 34 35 38 33 36 58 56 54 55 57 59 13 15 14 16 205 204 199 201 202 -148 146 147 145 144 107 105 109 106 108 200 198 203 -150 153 149 155 154 152 151 187 189 182 184 183 185 188 186 -170 168 167 169 120 118 117 116 115 119 114 131 132 130 70 68 66 67 207 -194 192 193 196 195 197 191 190 75 72 74 71 73 227 229 228 230 -208 206 98 103 99 101 104 102 100 27 26 28 25 29 217 219 216 218 -211 214 209 215 210 212 213 12 11 9 10 231 233 0 





OBJ=
1446.774
BEST_KNOWN=
0.000